100
128
57
33
1
5
15
57
11
20
1
63
33
1
50
19
39
4
33
47
24
54
4
36
31
48
53
40
3
38
58
39
60
2
10
31
48
53
62
51
36
43
59
35
15
53
62
38
46
50
55
53
56
55
18
47
57
38
38
19
33
57
50
53
52
46
59
5
16
19
47
59
20
35
43
4
17
33
5
59
25
50
2
2
25
30
29
27
27
49
2
58
30
3
2
26
29
2
8
6
38
32